
Gurobi 10.0.1 (linux64) logging started Wed May 31 05:01:30 2023

Set parameter LogFile to value "logFiles/A-2L-C/A-2L-6U-8F-15V-120D-charterout.log"
Gurobi Optimizer version 10.0.1 build v10.0.1rc0 (linux64)

CPU model: Intel(R) Xeon(R) Gold 5115 CPU @ 2.40GHz, instruction set [SSE2|AVX|AVX2|AVX512]
Thread count: 20 physical cores, 40 logical processors, using up to 20 threads

Optimize a model with 44729 rows, 361526 columns and 3082416 nonzeros
Model fingerprint: 0xc06f7821
Variable types: 1044 continuous, 360482 integer (360482 binary)
Coefficient statistics:
  Matrix range     [1e+00, 2e+05]
  Objective range  [4e+01, 3e+07]
  Bounds range     [1e+00, 1e+00]
  RHS range        [1e+00, 3e+06]
Presolve removed 31615 rows and 33773 columns (presolve time = 5s) ...
Presolve removed 31583 rows and 33741 columns
Presolve time: 7.34s
Presolved: 13146 rows, 327785 columns, 1476996 nonzeros
Variable types: 1051 continuous, 326734 integer (326721 binary)
Deterministic concurrent LP optimizer: primal simplex, dual simplex, and barrier
Showing barrier log only...

Root barrier log...

Ordering time: 0.47s

Barrier statistics:
 AA' NZ     : 7.797e+05
 Factor NZ  : 6.452e+06 (roughly 200 MB of memory)
 Factor Ops : 1.103e+10 (less than 1 second per iteration)
 Threads    : 17

                  Objective                Residual
Iter       Primal          Dual         Primal    Dual     Compl     Time
   0  -1.84193074e+16  1.50501052e+12  2.38e+09 5.95e+04  1.49e+11    11s
   1  -4.05277946e+15  2.31617343e+12  5.27e+08 4.27e+05  3.31e+10    11s
   2  -5.61324215e+14  2.60008026e+12  7.35e+07 7.83e+02  4.66e+09    11s
   3  -1.86973508e+13  1.62509613e+12  2.45e+06 1.12e+01  1.58e+08    11s
   4  -3.88949056e+12  4.17012380e+11  5.08e+05 1.40e-09  3.36e+07    11s
   5  -2.53222625e+12  3.92174705e+11  3.31e+05 1.40e-09  2.21e+07    12s
   6  -9.86830233e+11  3.24249900e+11  1.29e+05 1.28e-09  8.89e+06    12s
   7  -8.66222865e+11  3.10248190e+11  1.13e+05 1.46e-09  7.83e+06    12s
   8  -4.07317477e+11  2.41938210e+11  5.33e+04 1.16e-09  3.84e+06    12s
   9  -8.63640342e+10  1.87446699e+11  1.14e+04 1.16e-09  1.01e+06    12s
  10  -5.18424621e+10  7.62910505e+10  6.89e+03 1.51e-09  4.87e+05    12s
  11  -7.01337593e+09  4.01740445e+10  1.05e+03 1.16e-09  1.10e+05    13s
  12  -2.41292825e+09  1.33394789e+10  4.47e+02 1.57e-09  3.72e+04    13s
  13   9.43803530e+07  6.45355457e+09  1.26e+02 1.92e-09  1.31e+04    13s
  14   5.02686167e+08  4.63226279e+09  7.39e+01 2.53e-09  8.31e+03    13s
  15   6.43954936e+08  4.25525072e+09  5.62e+01 4.07e-09  7.04e+03    13s
  16   7.53615564e+08  3.22924823e+09  4.26e+01 6.64e-09  4.96e+03    13s
  17   8.41797515e+08  2.37520646e+09  3.20e+01 8.18e-09  3.24e+03    14s
  18   9.18354736e+08  1.86150120e+09  2.35e+01 1.30e-08  2.10e+03    14s
  19   1.00853284e+09  1.64660346e+09  1.35e+01 7.42e-09  1.35e+03    14s
  20   1.04336619e+09  1.43733979e+09  1.04e+01 1.47e-08  8.66e+02    14s
  21   1.06410490e+09  1.36396378e+09  8.13e+00 1.25e-08  6.51e+02    14s
  22   1.07240204e+09  1.33969877e+09  7.26e+00 1.64e-08  5.75e+02    15s
  23   1.09244835e+09  1.30382345e+09  5.31e+00 1.26e-08  4.37e+02    15s
  24   1.10607517e+09  1.24235591e+09  3.94e+00 1.86e-08  2.77e+02    15s
  25   1.12435961e+09  1.20249314e+09  2.19e+00 9.90e-09  1.49e+02    15s
  26   1.13238100e+09  1.18812771e+09  1.32e+00 9.60e-09  9.96e+01    15s
  27   1.13674762e+09  1.17812258e+09  1.03e+00 1.40e-08  7.13e+01    15s
  28   1.13886686e+09  1.17622855e+09  8.37e-01 1.30e-08  6.31e+01    16s
  29   1.14354334e+09  1.17225515e+09  5.34e-01 1.18e-08  4.70e+01    16s
  30   1.14844629e+09  1.16841209e+09  2.37e-01 1.10e-08  3.15e+01    16s
  31   1.15024009e+09  1.16426010e+09  1.64e-01 1.36e-08  2.19e+01    16s
  32   1.15130675e+09  1.16235736e+09  1.30e-01 1.40e-08  1.71e+01    16s
  33   1.15237502e+09  1.16128825e+09  9.94e-02 1.33e-08  1.38e+01    17s
  34   1.15326077e+09  1.16106913e+09  7.11e-02 1.17e-08  1.20e+01    17s
  35   1.15377122e+09  1.16007948e+09  6.12e-02 1.21e-08  9.71e+00    17s
  36   1.15444177e+09  1.15941543e+09  4.81e-02 1.35e-08  7.65e+00    17s
  37   1.15501324e+09  1.15913567e+09  3.81e-02 1.27e-08  6.33e+00    17s
  38   1.15531137e+09  1.15882512e+09  3.31e-02 1.26e-08  5.40e+00    18s
  39   1.15578097e+09  1.15862600e+09  2.56e-02 1.42e-08  4.37e+00    18s
  40   1.15603170e+09  1.15839734e+09  2.18e-02 1.19e-08  3.63e+00    18s
  41   1.15608609e+09  1.15833947e+09  2.09e-02 1.64e-08  3.46e+00    18s
  42   1.15620187e+09  1.15828420e+09  1.91e-02 1.32e-08  3.19e+00    18s
  43   1.15654931e+09  1.15816669e+09  1.44e-02 1.34e-08  2.48e+00    19s
  44   1.15678245e+09  1.15809335e+09  1.11e-02 1.48e-08  2.01e+00    19s
  45   1.15681182e+09  1.15798690e+09  1.07e-02 1.34e-08  1.80e+00    19s
  46   1.15699792e+09  1.15793532e+09  8.06e-03 1.40e-08  1.44e+00    19s
  47   1.15704792e+09  1.15786665e+09  7.40e-03 1.32e-08  1.26e+00    19s
  48   1.15730146e+09  1.15776005e+09  3.91e-03 1.60e-08  7.04e-01    20s
  49   1.15737937e+09  1.15770636e+09  2.88e-03 1.16e-08  5.02e-01    20s
  50   1.15749087e+09  1.15768188e+09  1.43e-03 1.28e-08  2.93e-01    20s
  51   1.15752128e+09  1.15765577e+09  1.03e-03 1.24e-08  2.06e-01    20s
  52   1.15757867e+09  1.15763708e+09  2.83e-04 1.57e-08  8.95e-02    20s
  53   1.15760048e+09  1.15760796e+09  1.90e-05 1.24e-08  1.14e-02    21s
  54   1.15760264e+09  1.15760356e+09  6.35e-06 1.49e-08  1.42e-03    21s
  55   1.15760282e+09  1.15760286e+09  1.79e-07 1.32e-08  5.76e-05    21s
  56   1.15760283e+09  1.15760283e+09  1.40e-09 1.59e-08  8.63e-09    21s

Barrier solved model in 56 iterations and 21.09 seconds (21.73 work units)
Optimal objective 1.15760283e+09


Root crossover log...

    9737 DPushes remaining with DInf 0.0000000e+00                21s
       0 DPushes remaining with DInf 0.0000000e+00                21s

    1057 PPushes remaining with PInf 1.1614770e-05                21s
       0 PPushes remaining with PInf 0.0000000e+00                21s

  Push phase complete: Pinf 0.0000000e+00, Dinf 7.8838661e+01     21s


Root simplex log...

Iteration    Objective       Primal Inf.    Dual Inf.      Time
   10784    1.1576028e+09   0.000000e+00   7.883866e+01     21s
   10786    1.1576028e+09   0.000000e+00   0.000000e+00     21s
Concurrent spin time: 0.00s

Solved with barrier
   10786    1.1576028e+09   0.000000e+00   0.000000e+00     22s

Root relaxation: objective 1.157603e+09, 10786 iterations, 12.99 seconds (10.09 work units)

    Nodes    |    Current Node    |     Objective Bounds      |     Work
 Expl Unexpl |  Obj  Depth IntInf | Incumbent    BestBd   Gap | It/Node Time

     0     0 1.1576e+09    0  389          - 1.1576e+09      -     -   23s
     0     0 1.1575e+09    0  355          - 1.1575e+09      -     -   55s
     0     0 1.1574e+09    0  336          - 1.1574e+09      -     -   74s
     0     0 1.1573e+09    0  350          - 1.1573e+09      -     -   87s
     0     0 1.1573e+09    0  365          - 1.1573e+09      -     -   89s
     0     0 1.1573e+09    0  358          - 1.1573e+09      -     -   91s
     0     0 1.1573e+09    0  360          - 1.1573e+09      -     -  102s
     0     0 1.1573e+09    0  341          - 1.1573e+09      -     -  118s
     0     0 1.1573e+09    0  345          - 1.1573e+09      -     -  120s
     0     0 1.1573e+09    0  345          - 1.1573e+09      -     -  120s
     0     0 1.1572e+09    0  368          - 1.1572e+09      -     -  130s
     0     0 1.1568e+09    0  304          - 1.1568e+09      -     -  172s
     0     0 1.1568e+09    0  309          - 1.1568e+09      -     -  175s
     0     0 1.1568e+09    0  310          - 1.1568e+09      -     -  176s
     0     0 1.1568e+09    0  305          - 1.1568e+09      -     -  182s
     0     0 1.1568e+09    0  296          - 1.1568e+09      -     -  186s
     0     0 1.1568e+09    0  285          - 1.1568e+09      -     -  190s
     0     0 1.1568e+09    0  311          - 1.1568e+09      -     -  198s
     0     0 1.1568e+09    0  305          - 1.1568e+09      -     -  201s
     0     0 1.1568e+09    0  310          - 1.1568e+09      -     -  202s
     0     0 1.1568e+09    0  304          - 1.1568e+09      -     -  216s
     0     0 1.1568e+09    0  310          - 1.1568e+09      -     -  220s
     0     0 1.1568e+09    0  317          - 1.1568e+09      -     -  220s
     0     0 1.1568e+09    0  306          - 1.1568e+09      -     -  231s
     0     0 1.1568e+09    0  307          - 1.1568e+09      -     -  236s
     0     0 1.1568e+09    0  308          - 1.1568e+09      -     -  237s
     0     0 1.1568e+09    0  304          - 1.1568e+09      -     -  240s
     0     0 1.1568e+09    0  327          - 1.1568e+09      -     -  255s
     0     0 1.1568e+09    0  310          - 1.1568e+09      -     -  260s
     0     0 1.1568e+09    0  312          - 1.1568e+09      -     -  263s
     0     0 1.1568e+09    0  312          - 1.1568e+09      -     -  264s
     0     0 1.1568e+09    0  301          - 1.1568e+09      -     -  269s
     0     2 1.1567e+09    0  297          - 1.1567e+09      -     -  449s
     1     4 1.1567e+09    1  315          - 1.1567e+09      - 11179  471s
     3     8 1.1567e+09    2  316          - 1.1567e+09      -  5790  487s
     7    16 1.1567e+09    3  319          - 1.1567e+09      -  3069  525s
    15    32 1.1567e+09    4  317          - 1.1567e+09      -  2436  578s
    31    52 1.1567e+09    5  308          - 1.1567e+09      -  2404  613s
    51    72 1.1567e+09    6  336          - 1.1567e+09      -  1870  631s
    71    92 1.1567e+09    7  335          - 1.1567e+09      -  1502  649s
    91   112 1.1567e+09    8  302          - 1.1567e+09      -  1299  672s
   111   132 1.1567e+09    9  291          - 1.1567e+09      -  1161  687s
   131   153 1.1567e+09   10  310          - 1.1567e+09      -  1048  703s
   152   173 1.1567e+09   11  295          - 1.1567e+09      -   959  714s
   172   195 1.1552e+09   11  276          - 1.1567e+09      -   904  732s
   194   216 1.1567e+09   12  295          - 1.1567e+09      -   852  749s
   215   239 1.1567e+09   13  287          - 1.1567e+09      -   864  776s
   240   262 1.1567e+09   14  286          - 1.1567e+09      -   897  809s
   263   283 1.1567e+09   14  272          - 1.1567e+09      -   952  835s
   284   309 1.1564e+09   15  346          - 1.1567e+09      -   990  887s
   310   335 1.1565e+09   15  278          - 1.1567e+09      -  1027  915s
   336   366 1.1565e+09   16  272          - 1.1567e+09      -  1013  944s
   367   400 1.1565e+09   17  275          - 1.1567e+09      -   985  973s
   401   433 1.1565e+09   18  292          - 1.1567e+09      -   961  993s
   434   469 1.1565e+09   19  270          - 1.1567e+09      -   921 1028s
   470   504 1.1565e+09   20  264          - 1.1567e+09      -   887 1070s
   505   548 1.1565e+09   22  268          - 1.1567e+09      -   869 1094s
   549   593 1.1565e+09   24  269          - 1.1567e+09      -   821 1116s
   594   637 1.1565e+09   26  265          - 1.1567e+09      -   786 1139s
   638   686 1.1565e+09   27  251          - 1.1567e+09      -   757 1162s
   687   742 1.1565e+09   29  247          - 1.1567e+09      -   725 1187s
   743   791 1.1565e+09   32  254          - 1.1567e+09      -   694 1209s
   792   861 1.1565e+09   36  246          - 1.1567e+09      -   671 1260s
   862   935 1.1565e+09   40  247          - 1.1567e+09      -   640 1289s
   936  1010 1.1565e+09   44  261          - 1.1567e+09      -   618 1318s
  1011  1080 1.1565e+09   47  265          - 1.1567e+09      -   602 1344s
  1081  1168 1.1565e+09   48  247          - 1.1567e+09      -   590 1372s
  1169  1260 1.1565e+09   51  260          - 1.1567e+09      -   570 1403s
  1261  1373 1.1565e+09   56  263          - 1.1567e+09      -   554 1432s
  1374  1480 1.1565e+09   61  258          - 1.1567e+09      -   531 1463s
  1481  1596 1.1565e+09   66  234          - 1.1567e+09      -   517 1495s
  1597  1689 1.1565e+09   72  222          - 1.1567e+09      -   504 1526s
  1690  1814 1.1565e+09   76  235          - 1.1567e+09      -   497 1556s
  1815  1949 1.1565e+09   80  224          - 1.1567e+09      -   484 1591s
  1950  2093 1.1565e+09   82  198          - 1.1567e+09      -   474 1627s
  2094  2217 1.1563e+09   83  207          - 1.1567e+09      -   465 1664s
  2218  2363 1.1564e+09   87  238          - 1.1567e+09      -   461 1699s
  2364  2541 1.1564e+09   92  220          - 1.1567e+09      -   453 1736s
  2544  2741 1.1564e+09   96  217          - 1.1567e+09      -   442 1775s
  2744  2924 1.1564e+09  108  205          - 1.1567e+09      -   431 1814s
  2931  3163 1.1564e+09  120  211          - 1.1567e+09      -   423 1853s
  3172  3368 1.1564e+09  134  204          - 1.1567e+09      -   409 1893s
  3377  3580 1.1564e+09  146  211          - 1.1567e+09      -   402 1937s
  3589  3736 1.1564e+09  158  191          - 1.1567e+09      -   395 2013s
  3745  3953 1.1563e+09  168  149          - 1.1567e+09      -   391 2057s
  3962  4211 1.1563e+09  180  172          - 1.1567e+09      -   388 2107s
  4222  4449 1.1563e+09  192  170          - 1.1567e+09      -   382 2156s
  4460  4685 1.1563e+09  200  199          - 1.1567e+09      -   380 2207s
  4696  4966 1.1562e+09  212  202          - 1.1567e+09      -   379 2260s
  4977  5159 1.1562e+09  228  211          - 1.1567e+09      -   376 2348s
  5170  5521 1.1562e+09  237  194          - 1.1567e+09      -   372 2406s
  5532  5916 1.1562e+09  248  201          - 1.1567e+09      -   363 2465s
  5927  6317 1.1561e+09  264  190          - 1.1567e+09      -   355 2525s
  6334  6802 1.1561e+09  272  207          - 1.1567e+09      -   347 2587s
  6821  7323 1.1561e+09  287  195          - 1.1567e+09      -   336 2654s
  7344  7809 1.1561e+09  300  192          - 1.1567e+09      -   325 2718s
  7830  8316 1.1560e+09  318  167          - 1.1567e+09      -   318 2784s
  8339  8891 1.1560e+09  336  161          - 1.1567e+09      -   311 2854s
  8914  9623 1.1560e+09  360  159          - 1.1567e+09      -   303 2928s
  9648 10393 1.1559e+09  388  156          - 1.1567e+09      -   291 3001s
 10418 11188 1.1559e+09  422  156          - 1.1567e+09      -   280 3075s
 11213 12084 1.1559e+09  443  139          - 1.1567e+09      -   270 3155s
 12110 12085 1.1548e+09  106  301          - 1.1567e+09      -   259 7606s
 12112 12086 1.1548e+09   41  391          - 1.1567e+09      -   259 7638s
 12113 12087 1.1546e+09   88  355          - 1.1567e+09      -   259 7677s
 12114 12088 1.1548e+09  664  311          - 1.1567e+09      -   259 7707s
 12115 12088 1.1554e+09   29  299          - 1.1567e+09      -   259 7717s
 12116 12089 1.1551e+09  328  306          - 1.1567e+09      -   259 7725s
 12117 12090 1.1552e+09  176  296          - 1.1567e+09      -   259 7736s
 12118 12090 1.1544e+09  389  320          - 1.1567e+09      -   259 7742s
 12119 12091 1.1550e+09  241  327          - 1.1567e+09      -   259 7752s
H12119 11486                    1.146032e+09 1.1567e+09  0.93%   259 7785s
H12119 10911                    1.146425e+09 1.1567e+09  0.90%   259 7800s
 12121 10912 1.1565e+09   27  315 1.1464e+09 1.1567e+09  0.90%   259 7809s
 12122 10913 1.1543e+09  452  322 1.1464e+09 1.1567e+09  0.90%   259 7813s
 12123 10914 1.1544e+09  645  310 1.1464e+09 1.1567e+09  0.90%   259 7819s
 12124 10914 1.1549e+09  479  323 1.1464e+09 1.1567e+09  0.90%   259 7828s
 12125 10915 1.1563e+09  131  323 1.1464e+09 1.1566e+09  0.89%   259 8021s
 12126 10916 1.1545e+09  224  348 1.1464e+09 1.1566e+09  0.89%   259 8056s
 12127 10916 1.1541e+09  606  340 1.1464e+09 1.1566e+09  0.89%   259 8064s
 12128 10917 1.1536e+09  702  351 1.1464e+09 1.1566e+09  0.89%   259 8066s
 12130 10918 1.1550e+09  438  339 1.1464e+09 1.1566e+09  0.89%   259 8076s
H12130 10372                    1.147734e+09 1.1566e+09  0.77%   259 8127s
 12132 10374 1.1548e+09  557  333 1.1477e+09 1.1566e+09  0.77%   259 8146s
 12133 10374 1.1563e+09   99  326 1.1477e+09 1.1566e+09  0.77%   259 8151s
 12134 10375 1.1543e+09  444  328 1.1477e+09 1.1566e+09  0.77%   259 8165s
 12135 10376 1.1544e+09  420  326 1.1477e+09 1.1566e+09  0.77%   259 8180s
 12136 10376 1.1549e+09   73  295 1.1477e+09 1.1565e+09  0.77%   259 8221s
 12137 10377 1.1553e+09   75  287 1.1477e+09 1.1565e+09  0.77%   259 8227s
 12138 10378 1.1549e+09   38  312 1.1477e+09 1.1565e+09  0.77%   259 8231s
 12139 10378 1.1542e+09  363  310 1.1477e+09 1.1565e+09  0.76%   258 8244s
 12140 10379 1.1561e+09  263  322 1.1477e+09 1.1565e+09  0.76%   258 8248s
 12141 10380 1.1550e+09  215  324 1.1477e+09 1.1565e+09  0.76%   258 8251s
 12142 10380 1.1546e+09  260  309 1.1477e+09 1.1565e+09  0.76%   258 8267s
 12143 10381 1.1542e+09  365  344 1.1477e+09 1.1565e+09  0.76%   258 8273s
 12144 10382 1.1551e+09  339  323 1.1477e+09 1.1565e+09  0.76%   258 8297s
 12145 10382 1.1544e+09  496  356 1.1477e+09 1.1565e+09  0.76%   258 8303s
 12146 10383 1.1548e+09  146  346 1.1477e+09 1.1565e+09  0.76%   258 8328s
 12147 10384 1.1548e+09  563  342 1.1477e+09 1.1565e+09  0.76%   258 8333s
 12148 10384 1.1549e+09   36  354 1.1477e+09 1.1565e+09  0.76%   258 8357s
 12149 10385 1.1544e+09  174  370 1.1477e+09 1.1565e+09  0.76%   258 8361s
 12150 10386 1.1550e+09  205  356 1.1477e+09 1.1565e+09  0.76%   258 8376s
 12151 10386 1.1548e+09  517  364 1.1477e+09 1.1565e+09  0.76%   258 8380s
 12152 10387 1.1548e+09  677  348 1.1477e+09 1.1565e+09  0.76%   258 8392s
 12153 10388 1.1544e+09  540  339 1.1477e+09 1.1565e+09  0.76%   258 8397s
 12154 10388 1.1543e+09  294  347 1.1477e+09 1.1565e+09  0.76%   258 8403s
 12155 10389 1.1549e+09   93  319 1.1477e+09 1.1565e+09  0.76%   258 8422s
 12156 10390 1.1554e+09   51  333 1.1477e+09 1.1565e+09  0.76%   258 8427s
 12157 10390 1.1549e+09  631  320 1.1477e+09 1.1565e+09  0.76%   258 8434s
 12158 10391 1.1552e+09  238  330 1.1477e+09 1.1565e+09  0.76%   258 8437s
 12159 10392 1.1551e+09  146  324 1.1477e+09 1.1565e+09  0.76%   258 8442s
 12160 10392 1.1549e+09   40  360 1.1477e+09 1.1565e+09  0.76%   258 8445s
 12162 10394 1.1546e+09  509  362 1.1477e+09 1.1565e+09  0.76%   258 8450s
 12166 10398 1.1558e+09  388  301 1.1477e+09 1.1565e+09  0.76%   284 8458s
H12167  9879                    1.147757e+09 1.1565e+09  0.76%   284 8489s
H12167  9385                    1.148045e+09 1.1565e+09  0.74%   284 8496s
 12169  9386 1.1541e+09  606  338 1.1480e+09 1.1565e+09  0.74%   284 8586s
 12170  9387 1.1564e+09  129  328 1.1480e+09 1.1565e+09  0.74%   284 8610s
 12171  9387 1.1542e+09  399  309 1.1480e+09 1.1565e+09  0.74%   284 8623s
 12172  9388 1.1549e+09   58  318 1.1480e+09 1.1565e+09  0.74%   284 8637s
 12173  9389 1.1564e+09   39  309 1.1480e+09 1.1565e+09  0.74%   284 8646s
 12174  9389 1.1546e+09  353  313 1.1480e+09 1.1565e+09  0.74%   284 8652s
 12175  9390 1.1544e+09  245  311 1.1480e+09 1.1565e+09  0.74%   284 8661s
 12176  9391 1.1553e+09   61  317 1.1480e+09 1.1565e+09  0.74%   284 8665s
 12178  9392 1.1554e+09   27  339 1.1480e+09 1.1565e+09  0.74%   284 8672s
 12179  9393 1.1544e+09  550  335 1.1480e+09 1.1565e+09  0.74%   284 8709s
 12180  9393 1.1554e+09   48  340 1.1480e+09 1.1565e+09  0.74%   284 8713s
 12181  9394 1.1551e+09  302  326 1.1480e+09 1.1565e+09  0.74%   284 8728s
 12182  9395 1.1546e+09  382  324 1.1480e+09 1.1565e+09  0.74%   284 8732s
 12183  9395 1.1550e+09  421  337 1.1480e+09 1.1565e+09  0.74%   284 8753s
 12184  9396 1.1545e+09  127  347 1.1480e+09 1.1565e+09  0.74%   284 8758s
 12185  9397 1.1547e+09  174  331 1.1480e+09 1.1565e+09  0.74%   284 8769s
 12186  9397 1.1562e+09  256  342 1.1480e+09 1.1565e+09  0.74%   284 8774s
 12187  9398 1.1544e+09  562  341 1.1480e+09 1.1565e+09  0.74%   284 8783s
 12188  9399 1.1542e+09  418  358 1.1480e+09 1.1565e+09  0.74%   284 8788s
 12189  9399 1.1547e+09  244  349 1.1480e+09 1.1565e+09  0.74%   284 8797s
 12190  9400 1.1543e+09  270  343 1.1480e+09 1.1565e+09  0.74%   284 8821s
 12191  9401 1.1551e+09  240  343 1.1480e+09 1.1565e+09  0.73%   284 9018s
 12192  9404 1.1565e+09   27  323 1.1480e+09 1.1565e+09  0.73%   299 9234s
 12194  9408 1.1565e+09   28  328 1.1480e+09 1.1565e+09  0.73%   299 9292s
 12198  9414 1.1565e+09   29  344 1.1480e+09 1.1565e+09  0.73%   301 9346s
 12206  9428 1.1565e+09   30  328 1.1480e+09 1.1565e+09  0.73%   303 9398s
 12222  9442 1.1565e+09   31  356 1.1480e+09 1.1565e+09  0.73%   321 10705s
H12223  8971                    1.148068e+09 1.1565e+09  0.73%   321 10706s
H12224  8524                    1.148108e+09 1.1565e+09  0.73%   340 10706s
H12230  8098                    1.148157e+09 1.1565e+09  0.72%   489 10707s
 12242  8114 1.1565e+09   32  369 1.1482e+09 1.1565e+09  0.72%   898 10730s
 12262  8127 1.1565e+09   32  323 1.1482e+09 1.1565e+09  0.72%   898 10788s
 12282  8138 1.1565e+09   33  355 1.1482e+09 1.1565e+09  0.72%   899 10800s

Cutting planes:
  Gomory: 2
  Cover: 17
  Implied bound: 17
  Clique: 2
  MIR: 65
  Flow cover: 122
  GUB cover: 1
  Network: 4
  RLT: 8
  Relax-and-lift: 22

Explored 12300 nodes (11132066 simplex iterations) in 10800.15 seconds (10869.87 work units)
Thread count was 20 (of 40 available processors)

Solution count 8: 1.14816e+09 1.14811e+09 1.14807e+09 ... 1.14603e+09

Time limit reached
Best objective 1.148157330144e+09, best bound 1.156457396339e+09, gap 0.7229%
